c CNF
c from Selman's wff generator
p cnf 140  1500
1.0 104 41 0
1.0 -90 -51 0
1.0 -112 104 0
1.0 -23 -130 0
1.0 53 -1 0
1.0 76 -130 0
1.0 90 -2 0
1.0 103 91 0
1.0 -131 -84 0
1.0 134 -30 0
1.0 -133 1 0
1.0 -131 95 0
1.0 95 22 0
1.0 -12 -56 0
1.0 58 127 0
1.0 -77 120 0
1.0 63 44 0
1.0 74 57 0
1.0 -58 5 0
1.0 -99 80 0
1.0 -102 -112 0
1.0 -27 -47 0
1.0 -34 -132 0
1.0 112 49 0
1.0 -93 45 0
1.0 -102 111 0
1.0 116 -34 0
1.0 -114 -17 0
1.0 129 72 0
1.0 -119 120 0
1.0 -111 -63 0
1.0 -112 19 0
1.0 -63 67 0
1.0 37 41 0
1.0 -75 109 0
1.0 -126 -75 0
1.0 -6 -30 0
1.0 -9 -89 0
1.0 12 -116 0
1.0 135 38 0
1.0 -104 136 0
1.0 37 -122 0
1.0 91 -100 0
1.0 34 2 0
1.0 31 39 0
1.0 128 -18 0
1.0 -134 -81 0
1.0 119 -30 0
1.0 -26 124 0
1.0 106 96 0
1.0 -56 -52 0
1.0 -53 -42 0
1.0 -81 10 0
1.0 28 2 0
1.0 82 51 0
1.0 81 -52 0
1.0 35 85 0
1.0 41 -60 0
1.0 111 48 0
1.0 -89 32 0
1.0 -42 89 0
1.0 -90 24 0
1.0 -75 97 0
1.0 -8 93 0
1.0 38 -8 0
1.0 67 99 0
1.0 6 -78 0
1.0 -110 27 0
1.0 -116 78 0
1.0 -102 28 0
1.0 124 -47 0
1.0 140 33 0
1.0 -41 -77 0
1.0 35 9 0
1.0 -87 65 0
1.0 92 116 0
1.0 -54 5 0
1.0 32 87 0
1.0 134 -105 0
1.0 137 41 0
1.0 118 4 0
1.0 13 -8 0
1.0 73 46 0
1.0 -22 -79 0
1.0 -84 -83 0
1.0 -29 2 0
1.0 107 -138 0
1.0 -39 44 0
1.0 48 4 0
1.0 12 -81 0
1.0 -126 31 0
1.0 -110 60 0
1.0 2 32 0
1.0 34 -19 0
1.0 -17 67 0
1.0 -111 102 0
1.0 -105 -100 0
1.0 40 94 0
1.0 125 -29 0
1.0 88 -114 0
1.0 -6 35 0
1.0 54 32 0
1.0 -99 1 0
1.0 -102 57 0
1.0 16 23 0
1.0 -117 -103 0
1.0 131 -112 0
1.0 86 -62 0
1.0 -97 6 0
1.0 -38 -28 0
1.0 28 -64 0
1.0 120 -12 0
1.0 34 98 0
1.0 -60 130 0
1.0 -102 27 0
1.0 -88 14 0
1.0 20 127 0
1.0 14 133 0
1.0 56 120 0
1.0 131 85 0
1.0 43 -80 0
1.0 69 6 0
1.0 -32 -140 0
1.0 13 74 0
1.0 -60 -77 0
1.0 -69 -5 0
1.0 124 -3 0
1.0 -88 -50 0
1.0 -130 33 0
1.0 -39 -105 0
1.0 104 -25 0
1.0 98 73 0
1.0 -9 -100 0
1.0 104 -64 0
1.0 66 81 0
1.0 130 -59 0
1.0 92 -96 0
1.0 61 126 0
1.0 10 -110 0
1.0 -42 11 0
1.0 -110 -75 0
1.0 138 49 0
1.0 -130 -81 0
1.0 -140 -80 0
1.0 -36 -136 0
1.0 -121 -2 0
1.0 -111 122 0
1.0 132 -82 0
1.0 16 51 0
1.0 -100 -55 0
1.0 136 -13 0
1.0 -93 -27 0
1.0 -22 28 0
1.0 -30 66 0
1.0 48 90 0
1.0 31 76 0
1.0 127 -35 0
1.0 90 -137 0
1.0 -10 -105 0
1.0 -131 27 0
1.0 55 -36 0
1.0 -101 8 0
1.0 97 -98 0
1.0 34 48 0
1.0 -82 95 0
1.0 -92 -3 0
1.0 107 -57 0
1.0 -84 -13 0
1.0 -49 126 0
1.0 133 -27 0
1.0 -124 65 0
1.0 112 111 0
1.0 -66 4 0
1.0 -7 -62 0
1.0 -118 40 0
1.0 53 -42 0
1.0 -27 2 0
1.0 -28 128 0
1.0 52 45 0
1.0 -15 -65 0
1.0 -69 -21 0
1.0 82 73 0
1.0 -112 119 0
1.0 -20 39 0
1.0 41 95 0
1.0 -82 -34 0
1.0 78 -109 0
1.0 34 -90 0
1.0 110 128 0
1.0 -60 84 0
1.0 63 -90 0
1.0 -129 40 0
1.0 -134 -55 0
1.0 89 38 0
1.0 -6 82 0
1.0 32 11 0
1.0 139 37 0
1.0 -121 23 0
1.0 -112 -5 0
1.0 -45 115 0
1.0 -29 -87 0
1.0 125 -39 0
1.0 120 122 0
1.0 133 -30 0
1.0 67 65 0
1.0 -87 138 0
1.0 3 75 0
1.0 -49 -9 0
1.0 96 -56 0
1.0 95 -58 0
1.0 -40 99 0
1.0 128 98 0
1.0 -22 -72 0
1.0 69 -50 0
1.0 -125 46 0
1.0 -54 62 0
1.0 -118 -25 0
1.0 83 -17 0
1.0 115 -92 0
1.0 49 38 0
1.0 109 117 0
1.0 -26 65 0
1.0 110 87 0
1.0 9 -13 0
1.0 38 -119 0
1.0 -136 -65 0
1.0 -16 117 0
1.0 -15 -88 0
1.0 64 -32 0
1.0 -96 130 0
1.0 -76 -3 0
1.0 -15 119 0
1.0 97 -130 0
1.0 55 135 0
1.0 -112 -134 0
1.0 -82 127 0
1.0 -19 -128 0
1.0 117 55 0
1.0 -57 -128 0
1.0 -107 70 0
1.0 59 -17 0
1.0 11 -77 0
1.0 -71 36 0
1.0 23 75 0
1.0 63 113 0
1.0 -28 -55 0
1.0 42 90 0
1.0 -19 -140 0
1.0 16 87 0
1.0 24 -94 0
1.0 -130 115 0
1.0 50 -124 0
1.0 97 -69 0
1.0 123 103 0
1.0 53 -84 0
1.0 84 -104 0
1.0 -51 -61 0
1.0 14 133 0
1.0 108 133 0
1.0 -117 -69 0
1.0 138 -139 0
1.0 102 126 0
1.0 -70 38 0
1.0 -2 95 0
1.0 -16 97 0
1.0 90 13 0
1.0 -5 -48 0
1.0 117 -61 0
1.0 -59 114 0
1.0 100 -34 0
1.0 -120 -42 0
1.0 -14 -52 0
1.0 37 119 0
1.0 11 116 0
1.0 49 -36 0
1.0 91 10 0
1.0 104 48 0
1.0 82 53 0
1.0 -94 -59 0
1.0 -110 84 0
1.0 63 -136 0
1.0 -112 108 0
1.0 -3 -27 0
1.0 37 -16 0
1.0 63 41 0
1.0 94 123 0
1.0 41 59 0
1.0 3 91 0
1.0 -86 72 0
1.0 -39 130 0
1.0 -16 65 0
1.0 80 13 0
1.0 54 114 0
1.0 96 -70 0
1.0 129 -68 0
1.0 18 -25 0
1.0 96 -54 0
1.0 43 97 0
1.0 -22 -32 0
1.0 -44 -22 0
1.0 -136 -110 0
1.0 -39 19 0
1.0 86 -96 0
1.0 120 -74 0
1.0 127 87 0
1.0 -44 106 0
1.0 138 57 0
1.0 -79 -130 0
1.0 99 -104 0
1.0 122 114 0
1.0 69 43 0
1.0 -116 -98 0
1.0 -44 -54 0
1.0 20 77 0
1.0 134 -40 0
1.0 30 -58 0
1.0 -21 31 0
1.0 -4 -11 0
1.0 -53 101 0
1.0 -58 -106 0
1.0 20 121 0
1.0 58 63 0
1.0 -103 -116 0
1.0 -33 128 0
1.0 19 107 0
1.0 -118 127 0
1.0 87 77 0
1.0 -42 49 0
1.0 -29 -16 0
1.0 -79 18 0
1.0 133 119 0
1.0 -106 -14 0
1.0 120 -134 0
1.0 -120 101 0
1.0 -37 -46 0
1.0 -94 -38 0
1.0 54 -100 0
1.0 118 -64 0
1.0 -42 66 0
1.0 -79 72 0
1.0 66 138 0
1.0 -99 -4 0
1.0 -49 43 0
1.0 -81 -74 0
1.0 -34 52 0
1.0 -116 18 0
1.0 83 114 0
1.0 -45 -15 0
1.0 13 -95 0
1.0 -98 128 0
1.0 31 -40 0
1.0 -113 134 0
1.0 46 89 0
1.0 106 136 0
1.0 109 61 0
1.0 -75 -7 0
1.0 102 140 0
1.0 127 24 0
1.0 -64 74 0
1.0 67 -92 0
1.0 -40 58 0
1.0 54 29 0
1.0 89 122 0
1.0 -129 -20 0
1.0 19 29 0
1.0 52 -73 0
1.0 7 -10 0
1.0 101 53 0
1.0 111 37 0
1.0 65 60 0
1.0 42 81 0
1.0 -101 -6 0
1.0 -35 -129 0
1.0 62 7 0
1.0 16 -72 0
1.0 -125 -45 0
1.0 -81 123 0
1.0 43 -24 0
1.0 -105 53 0
1.0 59 -94 0
1.0 82 28 0
1.0 -34 100 0
1.0 32 71 0
1.0 -115 2 0
1.0 125 89 0
1.0 -112 -78 0
1.0 130 85 0
1.0 38 -44 0
1.0 -71 -39 0
1.0 138 53 0
1.0 123 -39 0
1.0 40 16 0
1.0 104 -74 0
1.0 11 22 0
1.0 106 13 0
1.0 -56 -49 0
1.0 -87 -106 0
1.0 -18 105 0
1.0 -3 19 0
1.0 34 -112 0
1.0 -45 117 0
1.0 138 -85 0
1.0 -97 105 0
1.0 -13 -91 0
1.0 57 -90 0
1.0 -55 19 0
1.0 -37 -34 0
1.0 5 25 0
1.0 -2 -105 0
1.0 21 -103 0
1.0 -71 56 0
1.0 -55 98 0
1.0 2 11 0
1.0 86 -115 0
1.0 -73 -127 0
1.0 -55 34 0
1.0 139 98 0
1.0 60 -45 0
1.0 100 2 0
1.0 99 -88 0
1.0 -99 76 0
1.0 50 -36 0
1.0 -23 -7 0
1.0 -40 38 0
1.0 136 134 0
1.0 39 -61 0
1.0 62 56 0
1.0 -4 -28 0
1.0 104 99 0
1.0 -134 29 0
1.0 -36 -76 0
1.0 -114 -85 0
1.0 79 -31 0
1.0 -91 69 0
1.0 -125 32 0
1.0 -12 -89 0
1.0 -95 -130 0
1.0 126 120 0
1.0 72 94 0
1.0 -68 -3 0
1.0 26 -73 0
1.0 -47 61 0
1.0 93 -67 0
1.0 -16 -21 0
1.0 -10 -36 0
1.0 15 -111 0
1.0 -65 -89 0
1.0 -92 -59 0
1.0 -131 138 0
1.0 58 11 0
1.0 -78 -113 0
1.0 133 46 0
1.0 -82 -14 0
1.0 125 52 0
1.0 1 -6 0
1.0 65 130 0
1.0 -127 1 0
1.0 12 -21 0
1.0 134 -27 0
1.0 -73 103 0
1.0 -116 -127 0
1.0 38 13 0
1.0 -19 -50 0
1.0 -39 60 0
1.0 61 -90 0
1.0 111 -124 0
1.0 -11 -63 0
1.0 -25 80 0
1.0 -66 -101 0
1.0 -110 3 0
1.0 133 39 0
1.0 -36 -83 0
1.0 -13 -46 0
1.0 68 -60 0
1.0 10 -90 0
1.0 46 -16 0
1.0 117 -119 0
1.0 -121 -6 0
1.0 45 -22 0
1.0 105 -140 0
1.0 -46 -21 0
1.0 -80 -121 0
1.0 71 -117 0
1.0 -132 -55 0
1.0 34 138 0
1.0 -4 19 0
1.0 -41 14 0
1.0 -14 53 0
1.0 73 97 0
1.0 -78 134 0
1.0 -110 -2 0
1.0 56 -73 0
1.0 -71 -124 0
1.0 -3 90 0
1.0 104 -109 0
1.0 21 -32 0
1.0 -129 67 0
1.0 -60 68 0
1.0 -69 -59 0
1.0 -132 61 0
1.0 -45 36 0
1.0 -126 -117 0
1.0 85 -140 0
1.0 31 102 0
1.0 -29 -26 0
1.0 -93 19 0
1.0 77 109 0
1.0 -29 -80 0
1.0 -115 -126 0
1.0 103 71 0
1.0 71 -115 0
1.0 -76 -72 0
1.0 97 64 0
1.0 -82 30 0
1.0 -138 79 0
1.0 -18 -77 0
1.0 -63 81 0
1.0 -12 -139 0
1.0 113 84 0
1.0 16 -22 0
1.0 86 65 0
1.0 -95 46 0
1.0 133 119 0
1.0 -79 41 0
1.0 132 -16 0
1.0 -87 113 0
1.0 15 11 0
1.0 -23 -19 0
1.0 42 -9 0
1.0 55 134 0
1.0 -113 78 0
1.0 119 -108 0
1.0 -123 100 0
1.0 -72 -62 0
1.0 -72 -6 0
1.0 25 104 0
1.0 113 84 0
1.0 -78 89 0
1.0 -26 50 0
1.0 -18 -30 0
1.0 130 73 0
1.0 134 29 0
1.0 35 130 0
1.0 -94 62 0
1.0 -6 -45 0
1.0 -133 28 0
1.0 78 -93 0
1.0 -123 -136 0
1.0 68 24 0
1.0 -53 -41 0
1.0 31 -6 0
1.0 68 -130 0
1.0 34 5 0
1.0 33 -10 0
1.0 103 -68 0
1.0 64 -20 0
1.0 44 -90 0
1.0 130 39 0
1.0 44 -49 0
1.0 38 -56 0
1.0 -61 -99 0
1.0 4 -63 0
1.0 -128 117 0
1.0 33 -126 0
1.0 -38 -7 0
1.0 -49 -133 0
1.0 -137 91 0
1.0 -136 67 0
1.0 -26 66 0
1.0 -129 -19 0
1.0 -136 95 0
1.0 81 -34 0
1.0 40 -122 0
1.0 114 -33 0
1.0 124 -41 0
1.0 108 -136 0
1.0 62 21 0
1.0 39 123 0
1.0 78 9 0
1.0 -42 -73 0
1.0 55 49 0
1.0 -82 76 0
1.0 117 -22 0
1.0 -18 -78 0
1.0 -98 -100 0
1.0 83 13 0
1.0 21 93 0
1.0 26 -32 0
1.0 -81 34 0
1.0 -110 -106 0
1.0 128 129 0
1.0 -66 108 0
1.0 68 71 0
1.0 84 -51 0
1.0 4 66 0
1.0 -98 31 0
1.0 64 75 0
1.0 -41 5 0
1.0 134 9 0
1.0 -117 115 0
1.0 46 -102 0
1.0 -12 82 0
1.0 8 -121 0
1.0 -11 -3 0
1.0 -61 108 0
1.0 87 -13 0
1.0 -45 118 0
1.0 60 115 0
1.0 28 -54 0
1.0 -8 -48 0
1.0 -92 -82 0
1.0 84 74 0
1.0 42 -33 0
1.0 -45 -129 0
1.0 -106 14 0
1.0 128 34 0
1.0 -88 -79 0
1.0 -126 -102 0
1.0 43 -82 0
1.0 -16 86 0
1.0 119 61 0
1.0 -49 127 0
1.0 140 -81 0
1.0 115 86 0
1.0 24 127 0
1.0 -88 -99 0
1.0 -41 126 0
1.0 -71 107 0
1.0 -27 -17 0
1.0 -3 45 0
1.0 -126 -130 0
1.0 76 -131 0
1.0 -118 37 0
1.0 135 55 0
1.0 -40 -32 0
1.0 139 63 0
1.0 -80 -92 0
1.0 -137 -50 0
1.0 -40 -73 0
1.0 -63 102 0
1.0 -139 -42 0
1.0 97 -21 0
1.0 -53 119 0
1.0 -42 -127 0
1.0 79 -37 0
1.0 87 -6 0
1.0 -78 139 0
1.0 101 -34 0
1.0 -76 6 0
1.0 27 -120 0
1.0 -99 -136 0
1.0 -123 67 0
1.0 -103 43 0
1.0 48 -54 0
1.0 -53 135 0
1.0 -28 -26 0
1.0 -31 62 0
1.0 -42 -24 0
1.0 -19 128 0
1.0 55 120 0
1.0 22 59 0
1.0 113 101 0
1.0 96 -40 0
1.0 -65 -9 0
1.0 71 -82 0
1.0 -105 -10 0
1.0 -138 110 0
1.0 90 -46 0
1.0 105 -136 0
1.0 -97 94 0
1.0 133 140 0
1.0 9 -121 0
1.0 62 27 0
1.0 37 21 0
1.0 -130 -132 0
1.0 38 15 0
1.0 -10 -89 0
1.0 43 42 0
1.0 -42 52 0
1.0 -33 -106 0
1.0 -132 37 0
1.0 57 128 0
1.0 -120 7 0
1.0 22 36 0
1.0 -125 98 0
1.0 139 15 0
1.0 -66 -15 0
1.0 121 -77 0
1.0 113 32 0
1.0 -19 -62 0
1.0 69 -62 0
1.0 -97 -34 0
1.0 -131 -118 0
1.0 133 30 0
1.0 45 119 0
1.0 -55 68 0
1.0 99 -138 0
1.0 -60 -133 0
1.0 -55 131 0
1.0 -24 60 0
1.0 38 60 0
1.0 -90 -33 0
1.0 11 104 0
1.0 -31 -16 0
1.0 -14 -9 0
1.0 2 83 0
1.0 73 -1 0
1.0 -61 -20 0
1.0 -80 114 0
1.0 6 74 0
1.0 -37 41 0
1.0 57 -32 0
1.0 40 24 0
1.0 -106 67 0
1.0 -67 -24 0
1.0 -44 -104 0
1.0 78 -71 0
1.0 -5 34 0
1.0 -75 -39 0
1.0 70 -25 0
1.0 48 65 0
1.0 131 108 0
1.0 132 46 0
1.0 10 -129 0
1.0 59 29 0
1.0 -63 -127 0
1.0 -25 -72 0
1.0 97 48 0
1.0 113 -76 0
1.0 43 70 0
1.0 115 -65 0
1.0 -53 -87 0
1.0 116 99 0
1.0 86 -138 0
1.0 70 22 0
1.0 70 130 0
1.0 65 -49 0
1.0 119 -25 0
1.0 -90 71 0
1.0 -17 -7 0
1.0 106 7 0
1.0 4 -64 0
1.0 -86 87 0
1.0 76 130 0
1.0 -39 61 0
1.0 -86 110 0
1.0 40 46 0
1.0 53 9 0
1.0 16 77 0
1.0 -1 -90 0
1.0 -36 -52 0
1.0 -42 -16 0
1.0 -76 81 0
1.0 51 -66 0
1.0 112 93 0
1.0 101 -55 0
1.0 -132 -111 0
1.0 -61 -87 0
1.0 139 38 0
1.0 -53 -41 0
1.0 122 75 0
1.0 -1 -66 0
1.0 -18 -130 0
1.0 -45 39 0
1.0 9 90 0
1.0 37 106 0
1.0 -3 94 0
1.0 134 -53 0
1.0 127 -54 0
1.0 -120 -131 0
1.0 -121 96 0
1.0 135 71 0
1.0 -20 89 0
1.0 -54 99 0
1.0 -52 24 0
1.0 76 14 0
1.0 68 29 0
1.0 20 10 0
1.0 106 -20 0
1.0 -90 -87 0
1.0 -36 -25 0
1.0 115 -5 0
1.0 -115 -91 0
1.0 112 135 0
1.0 44 103 0
1.0 6 21 0
1.0 -47 -118 0
1.0 81 -84 0
1.0 -109 -117 0
1.0 -122 -15 0
1.0 -105 -13 0
1.0 -7 140 0
1.0 -102 -97 0
1.0 -118 122 0
1.0 100 108 0
1.0 51 46 0
1.0 -23 126 0
1.0 -1 -42 0
1.0 54 43 0
1.0 -43 118 0
1.0 74 112 0
1.0 105 -75 0
1.0 -93 -55 0
1.0 71 2 0
1.0 104 24 0
1.0 123 23 0
1.0 64 118 0
1.0 -88 72 0
1.0 -44 26 0
1.0 -101 91 0
1.0 6 -62 0
1.0 -64 72 0
1.0 96 -51 0
1.0 -73 -90 0
1.0 68 32 0
1.0 104 13 0
1.0 39 -113 0
1.0 64 94 0
1.0 16 -104 0
1.0 -35 -139 0
1.0 49 -137 0
1.0 -87 32 0
1.0 63 15 0
1.0 28 66 0
1.0 39 -48 0
1.0 1 118 0
1.0 -82 -36 0
1.0 -34 -61 0
1.0 57 33 0
1.0 64 -41 0
1.0 56 -46 0
1.0 111 46 0
1.0 -93 -74 0
1.0 -52 -1 0
1.0 -37 -64 0
1.0 125 74 0
1.0 107 75 0
1.0 116 61 0
1.0 -106 -29 0
1.0 -74 122 0
1.0 -56 119 0
1.0 -89 100 0
1.0 -68 24 0
1.0 -36 -38 0
1.0 -82 137 0
1.0 -14 116 0
1.0 -89 44 0
1.0 -129 2 0
1.0 -121 92 0
1.0 -51 -54 0
1.0 -77 -78 0
1.0 -115 86 0
1.0 83 -27 0
1.0 -2 -25 0
1.0 69 114 0
1.0 -116 -6 0
1.0 98 63 0
1.0 -117 106 0
1.0 43 105 0
1.0 -51 -107 0
1.0 -134 -131 0
1.0 -16 -86 0
1.0 59 106 0
1.0 -112 104 0
1.0 -27 15 0
1.0 120 63 0
1.0 28 -81 0
1.0 48 114 0
1.0 104 -18 0
1.0 103 121 0
1.0 87 65 0
1.0 -29 45 0
1.0 59 63 0
1.0 126 114 0
1.0 -55 -102 0
1.0 75 21 0
1.0 39 37 0
1.0 18 -80 0
1.0 4 77 0
1.0 -122 7 0
1.0 -70 5 0
1.0 119 139 0
1.0 -100 20 0
1.0 -41 -136 0
1.0 -32 88 0
1.0 27 102 0
1.0 39 34 0
1.0 41 -10 0
1.0 15 -138 0
1.0 137 -94 0
1.0 -114 19 0
1.0 -14 62 0
1.0 -10 33 0
1.0 134 107 0
1.0 140 131 0
1.0 1 113 0
1.0 110 -35 0
1.0 129 -33 0
1.0 -52 53 0
1.0 -114 -68 0
1.0 100 -65 0
1.0 -31 88 0
1.0 78 -40 0
1.0 -12 -79 0
1.0 -114 -100 0
1.0 133 10 0
1.0 -62 39 0
1.0 107 79 0
1.0 3 38 0
1.0 125 6 0
1.0 -45 133 0
1.0 71 93 0
1.0 53 125 0
1.0 -134 69 0
1.0 -108 -57 0
1.0 -136 -108 0
1.0 6 -19 0
1.0 24 94 0
1.0 -86 53 0
1.0 5 23 0
1.0 -7 67 0
1.0 135 -50 0
1.0 106 -4 0
1.0 -112 -35 0
1.0 -53 -130 0
1.0 83 19 0
1.0 71 -130 0
1.0 -12 105 0
1.0 32 92 0
1.0 -1 -73 0
1.0 77 23 0
1.0 57 -26 0
1.0 15 -131 0
1.0 -9 -50 0
1.0 40 30 0
1.0 135 5 0
1.0 97 -87 0
1.0 20 -40 0
1.0 63 -131 0
1.0 -17 28 0
1.0 -18 135 0
1.0 -45 -114 0
1.0 -4 -120 0
1.0 124 -63 0
1.0 9 76 0
1.0 -116 101 0
1.0 92 -128 0
1.0 -16 107 0
1.0 101 128 0
1.0 -102 -26 0
1.0 -5 -83 0
1.0 5 128 0
1.0 64 106 0
1.0 -66 26 0
1.0 -14 95 0
1.0 62 124 0
1.0 111 -122 0
1.0 8 116 0
1.0 58 140 0
1.0 -128 69 0
1.0 -34 -117 0
1.0 -3 27 0
1.0 122 101 0
1.0 85 106 0
1.0 -88 -94 0
1.0 -69 -23 0
1.0 23 107 0
1.0 36 125 0
1.0 102 -10 0
1.0 -36 6 0
1.0 107 22 0
1.0 -128 -126 0
1.0 79 92 0
1.0 -115 -137 0
1.0 104 -44 0
1.0 28 -68 0
1.0 -78 -98 0
1.0 -104 -71 0
1.0 -93 -51 0
1.0 37 -87 0
1.0 -39 46 0
1.0 43 117 0
1.0 21 18 0
1.0 86 74 0
1.0 -32 -129 0
1.0 59 126 0
1.0 -36 -47 0
1.0 133 107 0
1.0 12 30 0
1.0 6 55 0
1.0 -73 65 0
1.0 139 111 0
1.0 100 35 0
1.0 21 91 0
1.0 -137 -121 0
1.0 87 -35 0
1.0 64 65 0
1.0 -120 72 0
1.0 137 -30 0
1.0 1 -109 0
1.0 -4 50 0
1.0 -140 -8 0
1.0 -128 -67 0
1.0 101 7 0
1.0 -71 44 0
1.0 -116 -48 0
1.0 -78 -31 0
1.0 139 132 0
1.0 41 16 0
1.0 24 104 0
1.0 -30 -23 0
1.0 29 -118 0
1.0 22 -107 0
1.0 -15 -111 0
1.0 1 -75 0
1.0 66 -67 0
1.0 83 -25 0
1.0 -129 43 0
1.0 65 -62 0
1.0 39 23 0
1.0 129 62 0
1.0 -33 26 0
1.0 101 125 0
1.0 -52 -32 0
1.0 -57 139 0
1.0 42 -76 0
1.0 138 72 0
1.0 -94 -112 0
1.0 -34 14 0
1.0 -39 -41 0
1.0 26 -130 0
1.0 -22 -17 0
1.0 -16 31 0
1.0 107 -48 0
1.0 -119 -84 0
1.0 56 -96 0
1.0 110 100 0
1.0 1 113 0
1.0 -103 -32 0
1.0 48 35 0
1.0 -65 47 0
1.0 -94 -4 0
1.0 88 134 0
1.0 -90 19 0
1.0 119 -105 0
1.0 78 74 0
1.0 105 109 0
1.0 -3 87 0
1.0 -134 -57 0
1.0 60 92 0
1.0 85 24 0
1.0 -42 100 0
1.0 -65 19 0
1.0 92 5 0
1.0 113 -65 0
1.0 12 4 0
1.0 -60 -1 0
1.0 -92 110 0
1.0 133 136 0
1.0 96 22 0
1.0 40 -54 0
1.0 58 63 0
1.0 128 -115 0
1.0 119 49 0
1.0 49 94 0
1.0 64 5 0
1.0 -140 -106 0
1.0 -128 6 0
1.0 60 -136 0
1.0 59 66 0
1.0 41 15 0
1.0 63 -48 0
1.0 -2 75 0
1.0 -80 -9 0
1.0 114 -74 0
1.0 -80 -8 0
1.0 -4 8 0
1.0 -73 -124 0
1.0 -139 13 0
1.0 61 50 0
1.0 -125 5 0
1.0 13 -110 0
1.0 -44 -36 0
1.0 -43 77 0
1.0 -84 97 0
1.0 -81 -77 0
1.0 -89 122 0
1.0 -32 33 0
1.0 -38 59 0
1.0 29 -83 0
1.0 118 125 0
1.0 61 35 0
1.0 132 -36 0
1.0 112 10 0
1.0 132 11 0
1.0 44 -1 0
1.0 -59 -120 0
1.0 63 27 0
1.0 12 -73 0
1.0 -107 -128 0
1.0 23 -98 0
1.0 107 -43 0
1.0 -54 -123 0
1.0 124 22 0
1.0 -2 28 0
1.0 -55 7 0
1.0 -79 25 0
1.0 13 76 0
1.0 33 -36 0
1.0 -79 -84 0
1.0 -67 80 0
1.0 -101 -126 0
1.0 14 80 0
1.0 -87 130 0
1.0 -14 132 0
1.0 68 -75 0
1.0 -111 91 0
1.0 34 -57 0
1.0 136 -129 0
1.0 115 -101 0
1.0 40 -85 0
1.0 74 -50 0
1.0 -42 -81 0
1.0 16 -34 0
1.0 124 27 0
1.0 -83 -75 0
1.0 64 127 0
1.0 87 -95 0
1.0 -39 -83 0
1.0 133 123 0
1.0 64 -33 0
1.0 66 71 0
1.0 98 99 0
1.0 -33 -45 0
1.0 -31 -15 0
1.0 -110 21 0
1.0 -104 -76 0
1.0 -58 -41 0
1.0 73 -133 0
1.0 64 124 0
1.0 82 -116 0
1.0 -21 41 0
1.0 56 66 0
1.0 86 133 0
1.0 68 -14 0
1.0 -55 -135 0
1.0 -128 26 0
1.0 -9 -34 0
1.0 10 133 0
1.0 -34 -137 0
1.0 -62 110 0
1.0 103 7 0
1.0 21 -62 0
1.0 57 121 0
1.0 -6 47 0
1.0 -80 -26 0
1.0 -18 31 0
1.0 27 -60 0
1.0 -30 -114 0
1.0 121 13 0
1.0 -75 -36 0
1.0 17 137 0
1.0 43 -128 0
1.0 -13 2 0
1.0 -33 51 0
1.0 110 -82 0
1.0 -56 104 0
1.0 117 13 0
1.0 49 112 0
1.0 -108 75 0
1.0 -62 -124 0
1.0 -126 64 0
1.0 -114 -47 0
1.0 -128 86 0
1.0 -50 74 0
1.0 -87 -115 0
1.0 86 118 0
1.0 52 -6 0
1.0 130 -56 0
1.0 -119 -13 0
1.0 59 71 0
1.0 -16 119 0
1.0 -53 -28 0
1.0 -3 -29 0
1.0 6 52 0
1.0 58 64 0
1.0 119 -79 0
1.0 91 15 0
1.0 -86 55 0
1.0 -5 27 0
1.0 119 116 0
1.0 109 123 0
1.0 -124 70 0
1.0 100 125 0
1.0 -7 124 0
1.0 -34 -138 0
1.0 53 68 0
1.0 -94 -20 0
1.0 -136 -124 0
1.0 -107 -90 0
1.0 -19 -63 0
1.0 48 24 0
1.0 -8 5 0
1.0 2 42 0
1.0 -110 63 0
1.0 -82 -60 0
1.0 43 73 0
1.0 -23 26 0
1.0 89 -97 0
1.0 120 -36 0
1.0 41 126 0
1.0 -28 -47 0
1.0 110 67 0
1.0 -126 55 0
1.0 127 30 0
1.0 56 137 0
1.0 -93 -70 0
1.0 106 50 0
1.0 36 87 0
1.0 134 -6 0
1.0 72 120 0
1.0 -34 2 0
1.0 31 -124 0
1.0 -120 -81 0
1.0 11 -89 0
1.0 -139 63 0
1.0 -9 31 0
1.0 -36 -18 0
1.0 138 118 0
1.0 120 112 0
1.0 -95 -83 0
1.0 24 45 0
1.0 134 -10 0
1.0 72 -132 0
1.0 -23 126 0
1.0 4 48 0
1.0 26 51 0
1.0 23 -85 0
1.0 28 110 0
1.0 -15 57 0
1.0 66 -95 0
1.0 -86 -28 0
1.0 13 21 0
1.0 68 -52 0
1.0 -103 -49 0
1.0 -134 111 0
1.0 -81 -12 0
1.0 -68 -18 0
1.0 -112 103 0
1.0 130 68 0
1.0 89 52 0
1.0 -103 35 0
1.0 83 -66 0
1.0 -37 -10 0
1.0 -21 -31 0
1.0 -48 33 0
1.0 -135 -73 0
1.0 -1 -103 0
1.0 -14 -5 0
1.0 40 -73 0
1.0 139 90 0
1.0 99 -17 0
1.0 48 -81 0
1.0 -114 -9 0
1.0 -81 -52 0
1.0 15 79 0
1.0 84 -134 0
1.0 -67 45 0
1.0 -134 -24 0
1.0 -40 -110 0
1.0 51 139 0
1.0 -7 -17 0
1.0 69 -83 0
1.0 -22 -59 0
1.0 -52 -114 0
1.0 19 52 0
1.0 -75 -1 0
1.0 111 35 0
1.0 33 103 0
1.0 -120 35 0
1.0 -118 -17 0
1.0 -75 -100 0
1.0 -73 -50 0
1.0 -102 6 0
1.0 7 -67 0
1.0 -101 -72 0
1.0 34 42 0
1.0 76 21 0
1.0 37 -50 0
1.0 -9 -15 0
1.0 65 60 0
1.0 66 -136 0
1.0 62 72 0
1.0 3 46 0
1.0 87 49 0
1.0 -70 -110 0
1.0 -19 126 0
1.0 -140 32 0
1.0 -92 1 0
1.0 -136 11 0
1.0 -83 -137 0
1.0 -43 -96 0
1.0 5 -31 0
1.0 140 86 0
1.0 72 -115 0
1.0 -7 -12 0
1.0 -13 85 0
1.0 96 63 0
1.0 -60 -5 0
1.0 -100 -104 0
1.0 134 -101 0
1.0 47 -78 0
1.0 53 55 0
1.0 67 -46 0
1.0 -130 -133 0
1.0 -55 -10 0
1.0 -14 -105 0
1.0 -68 26 0
1.0 127 117 0
1.0 55 -64 0
1.0 118 62 0
1.0 -107 -45 0
1.0 38 -68 0
1.0 78 -24 0
1.0 129 2 0
1.0 -27 4 0
1.0 121 30 0
1.0 94 -57 0
1.0 -118 -30 0
1.0 75 -97 0
1.0 24 -81 0
1.0 105 -130 0
1.0 131 117 0
1.0 120 -125 0
1.0 -15 -74 0
1.0 130 -137 0
1.0 27 -14 0
1.0 -110 -90 0
1.0 -31 -135 0
1.0 -124 -6 0
1.0 -122 -96 0
1.0 81 -19 0
1.0 92 -55 0
1.0 51 -104 0
1.0 118 -98 0
1.0 -48 -109 0
1.0 -104 -34 0
1.0 39 21 0
1.0 -117 52 0
1.0 70 41 0
1.0 -95 78 0
1.0 -42 10 0
1.0 -108 119 0
1.0 -87 46 0
1.0 -80 -26 0
1.0 -46 58 0
1.0 -109 119 0
1.0 19 -93 0
1.0 -31 -22 0
1.0 -32 -59 0
1.0 38 -56 0
1.0 101 105 0
1.0 130 32 0
1.0 90 17 0
1.0 -136 137 0
1.0 -90 -16 0
1.0 38 104 0
1.0 23 2 0
1.0 57 79 0
1.0 44 79 0
1.0 110 77 0
1.0 -94 -126 0
1.0 -123 -73 0
1.0 89 -90 0
1.0 54 -104 0
1.0 -106 120 0
1.0 59 -41 0
1.0 -119 -98 0
1.0 35 -65 0
1.0 -51 125 0
1.0 -58 39 0
1.0 -129 17 0
1.0 -120 -46 0
1.0 -26 -113 0
1.0 14 -7 0
1.0 -104 -43 0
1.0 -107 89 0
1.0 73 -62 0
1.0 -101 -14 0
1.0 -30 128 0
1.0 -33 107 0
1.0 80 -60 0
1.0 -66 48 0
1.0 91 26 0
1.0 -115 14 0
1.0 75 122 0
1.0 -135 34 0
1.0 22 115 0
1.0 -81 126 0
1.0 -45 -113 0
1.0 21 -59 0
1.0 85 28 0
1.0 -41 -101 0
1.0 82 -4 0
1.0 -38 136 0
1.0 -110 133 0
1.0 -118 84 0
1.0 -57 -45 0
1.0 104 134 0
1.0 -21 76 0
1.0 36 -75 0
1.0 79 -49 0
1.0 44 15 0
1.0 -7 -64 0
1.0 135 8 0
1.0 1 -85 0
1.0 133 53 0
1.0 -21 -77 0
1.0 114 82 0
1.0 136 8 0
1.0 42 80 0
1.0 -4 -2 0
1.0 9 5 0
1.0 89 -41 0
1.0 94 -17 0
1.0 94 114 0
1.0 -56 101 0
1.0 109 16 0
1.0 96 -79 0
1.0 -80 -56 0
1.0 -61 134 0
1.0 -34 -100 0
1.0 -117 100 0
1.0 -73 -29 0
1.0 129 -86 0
1.0 102 107 0
1.0 -25 -15 0
1.0 111 -69 0
1.0 -26 -10 0
1.0 -100 125 0
1.0 -85 -31 0
1.0 -27 -120 0
1.0 -20 -58 0
1.0 25 130 0
1.0 -5 -1 0
1.0 -69 -131 0
1.0 -140 -76 0
1.0 61 39 0
1.0 -69 -10 0
1.0 129 80 0
1.0 -138 1 0
1.0 -131 -10 0
1.0 -10 -60 0
1.0 50 48 0
1.0 123 109 0
1.0 7 -27 0
1.0 36 26 0
1.0 105 -98 0
1.0 -99 -22 0
1.0 -31 54 0
1.0 -114 53 0
1.0 -100 -7 0
1.0 -115 -81 0
1.0 107 33 0
1.0 59 88 0
1.0 -46 59 0
1.0 -80 -109 0
1.0 23 -37 0
1.0 90 125 0
1.0 -132 -92 0
1.0 -32 -116 0
1.0 8 6 0
1.0 -93 -27 0
1.0 85 75 0
1.0 -43 96 0
1.0 132 -3 0
1.0 -128 -81 0
1.0 -32 121 0
1.0 97 -34 0
1.0 39 -63 0
1.0 -89 120 0
1.0 54 -132 0
1.0 88 -52 0
1.0 55 83 0
1.0 24 10 0
1.0 -131 -108 0
1.0 2 40 0
1.0 103 81 0
1.0 -60 -22 0
1.0 14 -3 0
1.0 55 -91 0
1.0 34 61 0
1.0 -71 33 0
1.0 1 90 0
1.0 130 -58 0
1.0 139 74 0
1.0 96 -86 0
1.0 89 100 0
1.0 -50 -109 0
1.0 -29 -123 0
